SAT
46 -135 8 -85 -23 67 167 -25 125 113 -11 -127 -105 96 160 174 111 -93 -153 147 -87 -114 16 -32 48 -139 -106 -118 -49 -4 62 34 -69 -152 103 156 75 -1 110 158 27 -145 21 -24 -175 -95 -116 79 -157 112 57 120 -47 31 -89 90 -26 14 -73 -162 -80 -131 -74 71 142 12 -155 -61 83 -28 -91 146 -98 165 -35 -159 -119 134 10 -22 -51 33 -81 -129 -20 2 92 -54 -63 -104 -65 130 3 -107 164 -144 115 -41 172 19 -108 138 -166 -169 122 101 -94 6 58 -59 -150 -56 77 50 60 -18 15 -39 13 7 -66 151 170 78 -70 -161 -42 -140 143 -53 -37 38 -102 171 -173 168 -52 55 -128 137 -84 -124 -148 -88 -76 -64 121 149 132 -44 -68 136 -86 -72 99 -154 -29 -9 -43 -163 30 126 -5 100 -45 -82 -123 36 109 97 141 -133 -40 17 -117 0
